100
128
2
30
30
18
18
2
4
31
2
46
10
17
27
7
12
30
31
1
31
1
2
33
1
34
9
5
37
3
43
48
54
54
49
41
44
3
50
18
50
31
18
64
42
3
46
13
49
42
52
50
26
4
35
53
40
61
41
49
55
53
64
11
57
45
56
8
44
26
53
57
64
45
44
59
6
3
58
12
37
4
39
44
47
36
52
45
8
13
18
38
31
51
47
64
47
16
5
6
30
37